4 
5  31 44 58 
6  07 22 29 37 44 49 54 59 
7  04 09 14 19 24 29 34 39 44 49 54 59 
8  04 09 14 19 24 29 34 39 44 49 56 
9  04 12 20 27 35 42 49 57 
10  04 12 19 27 34 42 49 57 
11  04 12 19 27 34 42 49 57 
12  04 12 19 27 34 42 49 57 
13  04 12 20 28 35 43 50 58 
14  05 12 20 28 35 43 49 57 
15  04 09 14 19 24 29 34 39 44 49 54 59 
16  04 09 14 19 24 29 34 39 44 49 54 59 
17  04 09 14 19 24 29 34 39 44 49 54 59 
18  04 09 14 19 24 29 34 39 44 53 59 
19  06 12 19 27 34 42 50 57 
20  04 12 19 27 34 41 49 57 
21  04 11 19 27 34 42 49 57 
22  04 13 28 45 59 
23  19 34 53 
0 
